
Gurobi 9.0.2 (mac64, Python) logging started Tue Jul  7 16:46:23 2020

Using license file /Users/leannthayaparan/gurobi.lic
Set parameter LogFile to value gurobi.log

Gurobi 9.0.2 (mac64, Python) logging started Tue Jul  7 16:47:01 2020

Using license file /Users/leannthayaparan/gurobi.lic
Set parameter LogFile to value gurobi.log

Gurobi 8.1.1 (mac64, Python) logging started Tue Jul  7 16:49:12 2020

Academic license - for non-commercial use only
